NAME          
ROWS
 N  OBJ
 L  c1
 L  c2
 L  c3
 L  c4
COLUMNS
    MARKER    'MARKER'                 'INTORG'
    x[1]      c1        429
    x[1]      c2        603
    x[1]      c3        174
    x[1]      c4        827
    x[1]      OBJ       -538
    x[2]      c1        563
    x[2]      c2        15
    x[2]      c3        743
    x[2]      c4        82
    x[2]      OBJ       -280
    x[3]      c1        785
    x[3]      c2        165
    x[3]      c3        767
    x[3]      c4        676
    x[3]      OBJ       -893
    x[4]      c1        193
    x[4]      c2        397
    x[4]      c3        750
    x[4]      c4        627
    x[4]      OBJ       -768
    x[5]      c1        10
    x[5]      c2        637
    x[5]      c3        811
    x[5]      c4        441
    x[5]      OBJ       -740
    x[6]      c1        396
    x[6]      c2        347
    x[6]      c3        926
    x[6]      c4        8
    x[6]      OBJ       -953
    x[7]      c1        354
    x[7]      c2        297
    x[7]      c3        805
    x[7]      c4        77
    x[7]      OBJ       -154
    x[8]      c1        470
    x[8]      c2        582
    x[8]      c3        125
    x[8]      c4        301
    x[8]      OBJ       -972
    x[9]      c1        580
    x[9]      c2        628
    x[9]      c3        737
    x[9]      c4        606
    x[9]      OBJ       -500
    x[10]     c1        757
    x[10]     c2        845
    x[10]     c3        519
    x[10]     c4        203
    x[10]     OBJ       -809
    x[11]     c1        932
    x[11]     c2        338
    x[11]     c3        245
    x[11]     c4        331
    x[11]     OBJ       -329
    x[12]     c1        112
    x[12]     c2        403
    x[12]     c3        675
    x[12]     c4        422
    x[12]     OBJ       -901
    x[13]     c1        676
    x[13]     c2        626
    x[13]     c3        853
    x[13]     c4        19
    x[13]     OBJ       -741
    x[14]     c1        761
    x[14]     c2        920
    x[14]     c3        712
    x[14]     c4        572
    x[14]     OBJ       -376
    x[15]     c1        605
    x[15]     c2        508
    x[15]     c3        487
    x[15]     c4        414
    x[15]     OBJ       -49
    x[16]     c1        35
    x[16]     c2        919
    x[16]     c3        596
    x[16]     c4        76
    x[16]     OBJ       -693
    x[17]     c1        596
    x[17]     c2        478
    x[17]     c3        769
    x[17]     c4        589
    x[17]     OBJ       -358
    x[18]     c1        83
    x[18]     c2        430
    x[18]     c3        37
    x[18]     c4        614
    x[18]     OBJ       -558
    x[19]     c1        83
    x[19]     c2        294
    x[19]     c3        187
    x[19]     c4        300
    x[19]     OBJ       -275
    x[20]     c1        46
    x[20]     c2        217
    x[20]     c3        775
    x[20]     c4        462
    x[20]     OBJ       -491
    x[21]     c1        303
    x[21]     c2        703
    x[21]     c3        812
    x[21]     c4        581
    x[21]     OBJ       -603
    x[22]     c1        132
    x[22]     c2        7
    x[22]     c3        900
    x[22]     c4        226
    x[22]     OBJ       -398
    x[23]     c1        477
    x[23]     c2        118
    x[23]     c3        300
    x[23]     c4        998
    x[23]     OBJ       -923
    x[24]     c1        571
    x[24]     c2        47
    x[24]     c3        766
    x[24]     c4        962
    x[24]     OBJ       -187
    x[25]     c1        175
    x[25]     c2        12
    x[25]     c3        360
    x[25]     c4        122
    x[25]     OBJ       -956
    x[26]     c1        291
    x[26]     c2        687
    x[26]     c3        952
    x[26]     c4        51
    x[26]     OBJ       -735
    x[27]     c1        528
    x[27]     c2        935
    x[27]     c3        602
    x[27]     c4        664
    x[27]     OBJ       -158
    x[28]     c1        552
    x[28]     c2        805
    x[28]     c3        750
    x[28]     c4        550
    x[28]     OBJ       -54
    x[29]     c1        185
    x[29]     c2        802
    x[29]     c3        67
    x[29]     c4        299
    x[29]     OBJ       -455
    x[30]     c1        864
    x[30]     c2        968
    x[30]     c3        638
    x[30]     c4        125
    x[30]     OBJ       -548
    x[31]     c1        401
    x[31]     c2        770
    x[31]     c3        903
    x[31]     c4        657
    x[31]     OBJ       -379
    x[32]     c1        48
    x[32]     c2        49
    x[32]     c3        652
    x[32]     c4        619
    x[32]     OBJ       -761
    x[33]     c1        388
    x[33]     c2        665
    x[33]     c3        877
    x[33]     c4        624
    x[33]     OBJ       -2
    x[34]     c1        663
    x[34]     c2        866
    x[34]     c3        278
    x[34]     c4        857
    x[34]     OBJ       -763
    x[35]     c1        337
    x[35]     c2        65
    x[35]     c3        902
    x[35]     c4        615
    x[35]     OBJ       -1
    x[36]     c1        248
    x[36]     c2        536
    x[36]     c3        768
    x[36]     c4        861
    x[36]     OBJ       -112
    x[37]     c1        619
    x[37]     c2        991
    x[37]     c3        306
    x[37]     c4        44
    x[37]     OBJ       -57
    x[38]     c1        243
    x[38]     c2        412
    x[38]     c3        771
    x[38]     c4        917
    x[38]     OBJ       -819
    x[39]     c1        116
    x[39]     c2        262
    x[39]     c3        546
    x[39]     c4        313
    x[39]     OBJ       -937
    x[40]     c1        982
    x[40]     c2        39
    x[40]     c3        921
    x[40]     c4        461
    x[40]     OBJ       -76
    x[41]     c1        57
    x[41]     c2        319
    x[41]     c3        670
    x[41]     c4        545
    x[41]     OBJ       -386
    x[42]     c1        656
    x[42]     c2        838
    x[42]     c3        279
    x[42]     c4        15
    x[42]     OBJ       -388
    x[43]     c1        952
    x[43]     c2        337
    x[43]     c3        898
    x[43]     c4        655
    x[43]     OBJ       -53
    x[44]     c1        458
    x[44]     c2        851
    x[44]     c3        295
    x[44]     c4        381
    x[44]     OBJ       -531
    x[45]     c1        595
    x[45]     c2        680
    x[45]     c3        87
    x[45]     c4        699
    x[45]     OBJ       -25
RHS
    rhs       c1        9654
    rhs       c2        11206
    rhs       c3        13496
    rhs       c4        10244
RANGES
BOUNDS
 BV bounds    x[1]
 BV bounds    x[2]
 BV bounds    x[3]
 BV bounds    x[4]
 BV bounds    x[5]
 BV bounds    x[6]
 BV bounds    x[7]
 BV bounds    x[8]
 BV bounds    x[9]
 BV bounds    x[10]
 BV bounds    x[11]
 BV bounds    x[12]
 BV bounds    x[13]
 BV bounds    x[14]
 BV bounds    x[15]
 BV bounds    x[16]
 BV bounds    x[17]
 BV bounds    x[18]
 BV bounds    x[19]
 BV bounds    x[20]
 BV bounds    x[21]
 BV bounds    x[22]
 BV bounds    x[23]
 BV bounds    x[24]
 BV bounds    x[25]
 BV bounds    x[26]
 BV bounds    x[27]
 BV bounds    x[28]
 BV bounds    x[29]
 BV bounds    x[30]
 BV bounds    x[31]
 BV bounds    x[32]
 BV bounds    x[33]
 BV bounds    x[34]
 BV bounds    x[35]
 BV bounds    x[36]
 BV bounds    x[37]
 BV bounds    x[38]
 BV bounds    x[39]
 BV bounds    x[40]
 BV bounds    x[41]
 BV bounds    x[42]
 BV bounds    x[43]
 BV bounds    x[44]
 BV bounds    x[45]
ENDATA
